Version identifier: 20.1.0.0 | 2020-11-10 | 9bedb6d68
CPXPARAM_Threads                                 1
CPXPARAM_TimeLimit                               7200
CPXPARAM_MIP_Tolerances_MIPGap                   0
Generic callback                                 0x60
1 of 1 MIP starts provided solutions.
MIP start 'm1' defined initial solution with objective 809.0178.
Tried aggregator 1 time.
Reduced MIP has 400501 rows, 400801 columns, and 1200800 nonzeros.
Reduced MIP has 800 binaries, 0 generals, 0 SOSs, and 0 indicators.
Presolve time = 0.40 sec. (379.65 ticks)
Probing time = 0.05 sec. (50.06 ticks)
Tried aggregator 1 time.
Reduced MIP has 400501 rows, 400801 columns, and 1200800 nonzeros.
Reduced MIP has 800 binaries, 0 generals, 0 SOSs, and 0 indicators.
Presolve time = 0.39 sec. (373.16 ticks)
Probing time = 0.05 sec. (50.06 ticks)
MIP emphasis: balance optimality and feasibility.
MIP search method: dynamic search.
Parallel mode: none, using 1 thread.
Root relaxation solution time = 0.14 sec. (154.23 ticks)

        Nodes                                         Cuts/
   Node  Left     Objective  IInf  Best Integer    Best Bound    ItCnt     Gap

*     0+    0                          809.0178     2716.0000           235.72%
      0     0      874.9996    10      809.0178     2716.0000        0  235.72%
      0     2      874.9996    10      809.0178      874.9994        0    8.16%
Elapsed time = 181.01 sec. (148964.53 ticks, tree = 0.01 MB, solutions = 1)
      1     3      817.0479    18      809.0178      874.9994    11271    8.16%
*     2     2      integral     0      812.0433      817.0478    21758    0.62%
      3     3      816.7286     2      812.0433      817.0450    22599    0.62%
      4     4      816.6925     8      812.0433      817.0450    22823    0.62%
*     5     3      integral     0      816.7072      817.0450    22828    0.04%
      5     1      816.7072     0      816.7072      817.0450    22828    0.04%
      6     0        cutoff            816.7072      816.7072    26219    0.00%

User cuts applied:  9

Root node processing (before b&c):
  Real time             =  181.02 sec. (148983.38 ticks)
Sequential b&c:
  Real time             =  136.05 sec. (102500.95 ticks)
                          ------------
Total (root+branch&cut) =  317.07 sec. (251484.33 ticks)
@Parameters: 
is_S_cut                                true
is_add_all_yinF                         true
is_start_value                          true
is_usercut                              true
is_visualization                        false
uc_only_rootnode                        false

data                                    Qi
fn                                      data/Qi/instance_500_800.csv
mode                                    ZLP
solver                                  cplex

p                                       5
r                                       50

EPS                                     1.0e-06
EPS_vio                                 1.0e-04
beta                                    0.10
gap                                     0.00
nodelimit                               Inf
timelimit                               7200.00


@PrintInfos
ItCnt: 26219
Current gap: 0.00 %
Termination Status: OPTIMAL
Primal Status: FEASIBLE_POINT
Solve Time: 317.07 sec
Objective Value: 816.707185
Number of Nodes:      7

CutInfo: [phase] num / time (sec) 
ZLP             [phase1]     0 / 0.00 [rLC]     2 / 3.27 [rUC]     2 / 2.67 [sLC]     4 / 4.20 [sUC]     4 / 4.94 
OldSubmodular   [phase1]     0 / 0.00 [rLC]     0 / 0.00 [rUC]     0 / 0.00 [sLC]     0 / 0.00 [sUC]     0 / 0.00 
NewSubmodular   [phase1]     0 / 0.00 [rLC]     0 / 0.00 [rUC]     0 / 0.00 [sLC]     0 / 0.00 [sUC]     0 / 0.00 
PMP             [phase1]     0 / 0.00 [rLC]     3 / 0.86 [rUC]     2 / 1.33 [sLC]     6 / 2.22 [sUC]     6 / 2.36 
Separation Round: [phase1] 0  [rLC] 3  [rUC] 2  [sLC] 6  [sUC] 6
Root Best Bound 817.047841
Root Best Integer: 812.043265
Best Bound: 816.707185
Best Integer: 816.707185

